%company_type = A;

% The minimum earnings to obtain.
budget = 500;
minimum_earnings = 1000;

% Co2 related constraints
previous_year_co2 = 1000;
Products = {Box, Recicled_Box};

product_costs = [5, 10];
product_selling_prices = [20, 25];
co2_emissions = [8, 1.5];
% an already recicled material is less reciclable than a non recicled one
% optional parameter (default = [])
product_reciclable_compositions = [0.8, 0.5];
% times_to_produce = [];
% minimum_number_of_products_to_make = [];
% raw_materials_of_products = [];

% 
